n = 16;
m = 24;
edge_from = [
  % Row 0: nodes 0,1,2,3
  0, 0, 1, 1, 2, 2, 3,
  % Row 1: nodes 4,5,6,7
  4, 4, 5, 5, 6, 6, 7,
  % Row 2: nodes 8,9,10,11
  8, 8, 9, 9, 10, 10, 11,
  % Row 3: nodes 12,13,14,15 (only horizontals)
  12, 13, 14
];
edge_to = [
  % Row 0:
  4, 1, 5, 2, 6, 3, 7,
  % Row 1:
  8, 5, 9, 6, 10, 7, 11,
  % Row 2:
  12, 9, 13, 10, 14, 11, 15,
  % Row 3:
  13, 14, 15
];
